2 100 755
5 3 1 4 2 1 3 5 2 4
1 4
1
7 2 7 5
0 35.0 35.0 0.0 0.0 0 230
2 41.0 49.0 10.0 10.0 151 181 18 0 0 0 0 0 0 0 1 1 0
3 35.0 17.0 10.0 7.0 40 70 27 0 0 0 0 0 0 0 1 0 0
4 55.0 45.0 10.0 13.0 106 136 32 0 0 1 0 0 1 0 0 0 0
5 55.0 20.0 10.0 19.0 139 169 44 0 1 0 0 0 0 1 0 0 0
6 15.0 30.0 10.0 26.0 24 54 54 0 0 0 0 1 0 0 0 0 0
7 25.0 30.0 10.0 3.0 89 119 17 0 1 1 0 0 0 0 0 0 0
8 20.0 50.0 10.0 5.0 71 101 9 0 0 0 0 0 0 1 1 0 0
9 10.0 43.0 10.0 9.0 85 115 35 0 1 0 0 1 0 0 0 0 0
10 55.0 60.0 10.0 16.0 87 117 25 0 0 0 0 0 1 0 0 0 0
11 30.0 60.0 10.0 16.0 114 144 41 0 1 1 0 0 0 0 0 0 0
12 20.0 65.0 10.0 12.0 57 87 52 0 0 0 0 0 0 0 0 0 1
13 50.0 35.0 10.0 19.0 53 83 25 0 0 0 0 0 1 0 1 0 0
14 30.0 25.0 10.0 23.0 149 179 23 0 0 0 0 0 1 0 0 0 0
15 15.0 10.0 10.0 20.0 32 62 64 1 0 1 0 1 0 0 0 0 0
16 30.0 5.0 10.0 8.0 51 81 94 0 0 1 0 0 0 0 0 0 1
17 10.0 20.0 10.0 19.0 65 95 83 0 0 0 0 0 1 0 0 0 0
18 5.0 30.0 10.0 2.0 147 177 53 0 0 0 0 1 0 1 0 0 0
19 20.0 40.0 10.0 12.0 77 107 42 0 1 0 1 0 0 0 0 1 0
20 15.0 60.0 10.0 17.0 66 96 81 0 0 0 0 0 0 0 1 0 0
21 45.0 65.0 10.0 9.0 116 146 70 0 0 0 0 0 1 0 0 0 0
22 45.0 20.0 10.0 11.0 52 82 29 1 0 0 0 1 0 0 0 1 0
23 45.0 10.0 10.0 18.0 87 117 37 0 0 0 0 0 0 0 1 0 0
24 55.0 5.0 10.0 29.0 58 88 11 0 0 0 0 0 1 0 0 0 0
25 65.0 35.0 10.0 3.0 143 173 20 0 1 0 0 0 0 0 0 0 0
26 65.0 20.0 10.0 6.0 156 186 91 0 0 1 0 0 0 0 0 0 0
27 45.0 30.0 10.0 17.0 122 152 71 1 0 0 0 0 0 0 0 0 0
28 35.0 40.0 10.0 16.0 27 57 75 1 0 0 1 1 0 0 1 0 1
29 41.0 37.0 10.0 16.0 29 59 62 0 0 0 1 1 0 0 0 0 1
30 64.0 42.0 10.0 9.0 53 83 54 0 0 1 0 0 0 0 0 0 0
31 40.0 60.0 10.0 21.0 61 91 46 1 1 1 0 0 0 1 0 0 1
32 31.0 52.0 10.0 27.0 40 70 82 0 0 0 0 1 0 0 0 1 0
33 35.0 69.0 10.0 23.0 131 161 15 0 0 0 0 0 0 0 1 1 0
34 53.0 52.0 10.0 11.0 27 57 26 0 0 1 1 1 0 0 0 0 0
35 65.0 55.0 10.0 14.0 107 137 15 0 0 0 1 1 0 0 0 0 1
36 63.0 65.0 10.0 8.0 133 163 82 0 1 0 0 0 0 0 1 0 0
37 2.0 60.0 10.0 5.0 41 71 18 1 0 0 0 1 1 0 0 0 0
38 20.0 20.0 10.0 8.0 124 154 22 0 0 1 0 0 0 0 0 1 1
39 5.0 5.0 10.0 16.0 73 103 25 0 0 1 0 0 0 0 0 0 0
40 60.0 12.0 10.0 31.0 34 64 7 1 1 0 1 0 0 0 0 0 0
41 40.0 25.0 10.0 9.0 75 105 33 0 0 0 0 0 1 0 0 0 0
42 42.0 7.0 10.0 5.0 87 117 53 0 0 1 0 0 0 0 1 0 0
43 24.0 12.0 10.0 5.0 25 55 16 0 1 0 0 0 0 0 0 0 0
44 23.0 3.0 10.0 7.0 122 152 20 0 0 0 0 1 1 0 0 0 0
45 11.0 14.0 10.0 18.0 59 89 96 0 0 1 1 0 0 0 0 0 0
46 6.0 38.0 10.0 16.0 29 59 46 1 1 0 0 1 0 0 0 1 0
47 2.0 48.0 10.0 1.0 107 137 50 0 0 1 1 0 0 0 0 0 0
48 8.0 56.0 10.0 27.0 41 71 53 0 1 0 0 1 0 0 0 0 0
49 13.0 52.0 10.0 36.0 155 185 82 0 1 0 0 0 0 0 0 0 0
50 6.0 68.0 10.0 30.0 98 128 12 1 0 0 0 0 1 0 0 0 1
51 47.0 47.0 10.0 13.0 114 144 78 0 0 0 1 0 1 1 0 0 0
52 49.0 58.0 10.0 10.0 78 108 46 0 0 0 0 1 0 0 0 1 0
53 27.0 43.0 10.0 9.0 42 72 63 0 0 0 0 0 1 1 0 0 0
54 37.0 31.0 10.0 14.0 85 115 89 0 0 1 0 0 0 0 0 0 0
55 57.0 29.0 10.0 18.0 130 160 16 1 0 0 1 0 0 0 0 0 0
56 63.0 23.0 10.0 2.0 126 156 74 0 0 1 0 0 0 0 0 0 0
57 53.0 12.0 10.0 6.0 120 150 58 0 0 0 1 0 0 0 1 0 0
58 32.0 12.0 10.0 7.0 91 121 31 1 0 0 1 0 0 0 1 0 0
59 36.0 26.0 10.0 18.0 180 210 48 0 0 0 0 0 0 0 0 1 1
60 21.0 24.0 10.0 28.0 17 47 22 0 0 1 0 0 0 1 1 0 0
61 17.0 34.0 10.0 3.0 152 182 86 0 0 1 0 0 0 0 0 1 0
62 12.0 24.0 10.0 13.0 66 96 1 1 0 0 0 0 0 0 0 0 0
63 24.0 58.0 10.0 19.0 48 78 35 0 0 0 0 1 1 1 0 0 0
64 27.0 69.0 10.0 10.0 34 64 46 0 0 0 0 0 1 0 0 0 1
65 15.0 77.0 10.0 9.0 63 93 29 0 1 0 0 1 0 0 1 0 0
66 62.0 77.0 10.0 20.0 49 79 5 0 0 0 0 0 1 0 0 0 0
67 49.0 73.0 10.0 25.0 117 147 76 0 0 0 0 0 0 1 0 0 0
68 67.0 5.0 10.0 25.0 73 103 15 0 0 1 0 1 0 0 0 0 0
69 56.0 39.0 10.0 36.0 132 162 12 1 0 0 0 0 0 1 0 0 0
70 37.0 47.0 10.0 6.0 40 70 23 0 0 0 0 0 1 0 0 0 0
71 37.0 56.0 10.0 5.0 168 198 84 0 0 0 0 1 0 0 0 1 0
72 57.0 68.0 10.0 15.0 67 97 96 0 1 0 0 1 0 1 0 0 0
73 47.0 16.0 10.0 25.0 25 55 29 0 0 0 0 0 1 0 1 0 0
74 44.0 17.0 10.0 9.0 68 98 89 0 0 1 1 0 0 0 0 0 0
75 46.0 13.0 10.0 8.0 139 169 85 1 0 0 1 0 0 0 1 0 0
76 49.0 11.0 10.0 18.0 59 89 67 0 0 0 1 0 0 1 0 0 1
77 49.0 42.0 10.0 13.0 63 93 30 0 0 1 0 0 1 0 0 1 0
78 53.0 43.0 10.0 14.0 169 199 14 0 1 0 0 0 0 0 0 0 1
79 61.0 52.0 10.0 3.0 86 116 25 0 0 0 0 1 0 1 0 0 0
80 57.0 48.0 10.0 23.0 82 112 0 0 1 0 0 0 0 0 0 0 0
81 56.0 37.0 10.0 6.0 168 198 48 0 0 0 0 0 0 0 0 0 1
82 55.0 54.0 10.0 26.0 84 114 32 0 0 0 0 0 1 0 0 0 0
83 15.0 47.0 10.0 16.0 45 75 36 0 1 0 0 0 0 0 0 0 0
84 14.0 37.0 10.0 11.0 34 64 83 0 0 0 0 0 1 0 0 0 0
85 11.0 31.0 10.0 7.0 91 121 18 1 1 0 0 0 0 1 0 0 0
86 16.0 22.0 10.0 41.0 81 111 75 1 0 0 0 0 0 0 0 0 0
87 4.0 18.0 10.0 35.0 84 114 80 0 0 0 1 1 1 0 0 0 1
88 28.0 18.0 10.0 26.0 83 113 46 0 1 1 0 0 1 0 1 0 0
89 26.0 52.0 10.0 9.0 64 94 57 0 1 1 1 0 1 0 0 0 0
90 26.0 35.0 10.0 15.0 166 196 77 0 0 0 0 0 1 0 0 0 0
91 31.0 67.0 10.0 3.0 85 115 86 1 0 0 0 0 0 1 1 1 0
92 15.0 19.0 10.0 1.0 150 180 15 0 1 0 0 1 0 0 0 0 1
93 22.0 22.0 10.0 2.0 18 48 80 1 0 0 0 0 0 0 0 0 0
94 18.0 24.0 10.0 22.0 169 199 40 0 0 0 0 0 0 1 0 1 0
95 26.0 27.0 10.0 27.0 90 120 21 0 0 0 0 0 0 0 1 0 0
96 25.0 24.0 10.0 20.0 29 59 57 1 0 0 1 0 0 0 0 0 0
97 22.0 27.0 10.0 11.0 125 155 43 0 0 0 0 1 0 0 1 1 1
98 25.0 21.0 10.0 12.0 123 153 43 0 0 0 0 0 0 1 0 0 0
99 19.0 21.0 10.0 10.0 48 78 57 1 0 0 0 0 1 1 0 0 0
100 20.0 26.0 10.0 9.0 73 103 83 1 0 0 0 0 0 0 0 1 0
101 18.0 18.0 10.0 17.0 165 195 37 0 0 0 1 0 0 0 0 0 0